
Log started (V12.8.0.0) Wed Dec 11 14:32:47 2019


Problem 'model6.lp' read.
Read time = 0.02 sec. (0.28 ticks)
Tried aggregator 3 times.
MIP Presolve eliminated 797 rows and 274 columns.
MIP Presolve modified 446 coefficients.
Aggregator did 185 substitutions.
Reduced MIP has 906 rows, 411 columns, and 11792 nonzeros.
Reduced MIP has 275 binaries, 136 generals, 0 SOSs, and 0 indicators.
Presolve time = 0.02 sec. (18.96 ticks)
Found incumbent of value 35.000000 after 0.04 sec. (34.27 ticks)
Probing fixed 1 vars, tightened 13 bounds.
Probing time = 0.00 sec. (0.47 ticks)
Tried aggregator 1 time.
MIP Presolve eliminated 2 rows and 1 columns.
MIP Presolve modified 36 coefficients.
Reduced MIP has 904 rows, 410 columns, and 11788 nonzeros.
Reduced MIP has 274 binaries, 136 generals, 0 SOSs, and 0 indicators.
Presolve time = 0.01 sec. (5.11 ticks)
Probing time = 0.00 sec. (0.62 ticks)
Clique table members: 498.
MIP emphasis: balance optimality and feasibility.
MIP search method: dynamic search.
Parallel mode: deterministic, using up to 4 threads.
Root relaxation solution time = 0.00 sec. (2.07 ticks)

        Nodes                                         Cuts/
   Node  Left     Objective  IInf  Best Integer    Best Bound    ItCnt     Gap

*     0+    0                           35.0000        1.0000            97.14%
      0     0        cutoff             35.0000                      1    0.00%

Root node processing (before b&c):
  Real time             =    0.06 sec. (45.88 ticks)
Parallel b&c, 4 threads:
  Real time             =    0.00 sec. (0.00 ticks)
  Sync time (average)   =    0.00 sec.
  Wait time (average)   =    0.00 sec.
                          ------------
Total (root+branch&cut) =    0.06 sec. (45.88 ticks)

Solution pool: 1 solution saved.

MIP - Integer optimal solution:  Objective =  3.5000000000e+01
Solution time =    0.06 sec.  Iterations = 1  Nodes = 0
Deterministic time = 45.88 ticks  (726.66 ticks/sec)

